Config Number,t2,a,w2,t3,w1,t1,Mass (kg),Max Von Mises Stress (MPa),Max Displacement (mm)
1,32,72,160,48,120,40,245.162 kg,9.06996 MPa,0.0627958 mm
2,32,72,160,48,120,50,265.322 kg,6.81215 MPa,0.0519929 mm
3,32,72,160,48,120,60,285.482 kg,8.61274 MPa,0.0439658 mm
4,32,72,160,48,150,40,265.322 kg,8.63924 MPa,0.0560326 mm
5,32,72,160,48,150,50,290.522 kg,7.58356 MPa,0.046268 mm
6,32,72,160,48,150,60,315.722 kg,6.51477 MPa,0.0389252 mm
7,32,72,160,48,180,40,285.482 kg,9.17409 MPa,0.051373 mm
8,32,72,160,48,180,50,315.722 kg,7.54146 MPa,0.0422389 mm
9,32,72,160,48,180,60,345.962 kg,7.73886 MPa,0.0353907 mm
10,32,72,160,60,120,40,277.418 kg,6.72611 MPa,0.0518695 mm
11,32,72,160,60,120,50,297.578 kg,5.1893 MPa,0.0431426 mm
12,32,72,160,60,120,60,317.738 kg,4.53023 MPa,0.0364951 mm
13,32,72,160,60,150,40,297.578 kg,5.91529 MPa,0.0462733 mm
14,32,72,160,60,150,50,322.778 kg,5.51282 MPa,0.0383071 mm
15,32,72,160,60,150,60,347.978 kg,4.23882 MPa,0.0324164 mm
16,32,72,160,60,180,40,317.738 kg,5.76084 MPa,0.0421411 mm
17,32,72,160,60,180,50,347.978 kg,4.47921 MPa,0.0349446 mm
18,32,72,160,60,180,60,378.218 kg,7.91728 MPa,0.0295022 mm
19,32,72,160,72,120,40,309.674 kg,5.76319 MPa,0.0428699 mm
20,32,72,160,72,120,50,329.834 kg,5.1346 MPa,0.0360258 mm
21,32,72,160,72,120,60,349.994 kg,5.69495 MPa,0.0306409 mm
22,32,72,160,72,150,40,329.834 kg,5.33567 MPa,0.0384713 mm
23,32,72,160,72,150,50,355.034 kg,4.74369 MPa,0.0320695 mm
24,32,72,160,72,150,60,380.234 kg,5.25214 MPa,0.0271881 mm
25,32,72,160,72,180,40,349.994 kg,5.06075 MPa,0.0351948 mm
26,32,72,160,72,180,50,380.234 kg,4.43039 MPa,0.0292344 mm
27,32,72,160,72,180,60,410.474 kg,4.1 MPa,0.0249308 mm
28,32,72,200,48,120,40,276.616 kg,14.4311 MPa,0.0593872 mm
29,32,72,200,48,120,50,296.776 kg,12.2896 MPa,0.0491279 mm
30,32,72,200,48,120,60,316.936 kg,11.4087 MPa,0.0413283 mm
31,32,72,200,48,150,40,296.776 kg,11.4055 MPa,0.0528276 mm
32,32,72,200,48,150,50,321.976 kg,9.63496 MPa,0.0436142 mm
33,32,72,200,48,150,60,347.176 kg,8.60181 MPa,0.0367347 mm
34,32,72,200,48,180,40,316.936 kg,12.3688 MPa,0.0481288 mm
35,32,72,200,48,180,50,347.176 kg,10.4317 MPa,0.0396116 mm
36,32,72,200,48,180,60,377.416 kg,7.67419 MPa,0.0334562 mm
37,32,72,200,60,120,40,316.936 kg,6.15608 MPa,0.0487607 mm
38,32,72,200,60,120,50,337.096 kg,5.19728 MPa,0.0407483 mm
39,32,72,200,60,120,60,357.256 kg,4.32749 MPa,0.0346282 mm
40,32,72,200,60,150,40,337.096 kg,6.51017 MPa,0.0433637 mm
41,32,72,200,60,150,50,362.296 kg,5.86425 MPa,0.0360718 mm
42,32,72,200,60,150,60,387.496 kg,3.83683 MPa,0.0307275 mm
43,32,72,200,60,180,40,357.256 kg,4.80823 MPa,0.0397832 mm
44,32,72,200,60,180,50,387.496 kg,5.49003 MPa,0.0329931 mm
45,32,72,200,60,180,60,417.736 kg,3.68621 MPa,0.0279468 mm
46,32,72,200,72,120,40,357.256 kg,5.00048 MPa,0.0403493 mm
47,32,72,200,72,120,50,377.416 kg,4.49646 MPa,0.0340264 mm
48,32,72,200,72,120,60,397.576 kg,4.07096 MPa,0.029183 mm
49,32,72,200,72,150,40,377.416 kg,4.65653 MPa,0.0360898 mm
50,32,72,200,72,150,50,402.616 kg,4.16302 MPa,0.0303178 mm
51,32,72,200,72,150,60,427.816 kg,3.75047 MPa,0.0259211 mm
52,32,72,200,72,180,40,397.576 kg,4.38283 MPa,0.0330481 mm
53,32,72,200,72,180,50,427.816 kg,3.90268 MPa,0.0276742 mm
54,32,72,200,72,180,60,458.056 kg,3.50888 MPa,0.0236178 mm
55,32,72,240,48,120,40,308.07 kg,8.40807 MPa,0.0506759 mm
56,32,72,240,48,120,50,328.23 kg,7.35848 MPa,0.0420692 mm
57,32,72,240,48,120,60,348.39 kg,6.42611 MPa,0.0348902 mm
58,32,72,240,48,150,40,328.23 kg,9.31937 MPa,0.045332 mm
59,32,72,240,48,150,50,353.43 kg,7.60708 MPa,0.037303 mm
60,32,72,240,48,150,60,378.63 kg,6.73489 MPa,0.0316842 mm
61,32,72,240,48,180,40,348.39 kg,6.47547 MPa,0.0404672 mm
62,32,72,240,48,180,50,378.63 kg,8.6529 MPa,0.0345492 mm
63,32,72,240,48,180,60,408.87 kg,5.63469 MPa,0.0273508 mm
64,32,72,240,60,120,40,356.454 kg,5.37793 MPa,0.043392 mm
65,32,72,240,60,120,50,376.614 kg,4.86649 MPa,0.0364139 mm
66,32,72,240,60,120,60,396.774 kg,4.5396 MPa,0.0311742 mm
67,32,72,240,60,150,40,376.614 kg,4.97075 MPa,0.0389934 mm
68,32,72,240,60,150,50,401.814 kg,4.51313 MPa,0.0325542 mm
69,32,72,240,60,150,60,427.014 kg,4.08707 MPa,0.0277434 mm
70,32,72,240,60,180,40,396.774 kg,4.52113 MPa,0.0356276 mm
71,32,72,240,60,180,50,427.014 kg,4.07986 MPa,0.0296593 mm
72,32,72,240,60,180,60,457.254 kg,3.61412 MPa,0.0253355 mm
73,32,72,240,72,120,40,404.838 kg,4.39416 MPa,0.0362618 mm
74,32,72,240,72,120,50,424.998 kg,3.98429 MPa,0.0307803 mm
75,32,72,240,72,120,60,445.158 kg,3.62348 MPa,0.0264392 mm
76,32,72,240,72,150,40,424.998 kg,3.9589 MPa,0.0326906 mm
77,32,72,240,72,150,50,450.198 kg,3.50926 MPa,0.027498 mm
78,32,72,240,72,150,60,475.398 kg,3.22025 MPa,0.0236064 mm
79,32,72,240,72,180,40,445.158 kg,3.71442 MPa,0.0298686 mm
80,32,72,240,72,180,50,475.398 kg,3.21589 MPa,0.0252834 mm
81,32,72,240,72,180,60,505.638 kg,4.23382 MPa,0.0216534 mm
82,32,90,160,48,120,40,254.839 kg,7.30911 MPa,0.0496433 mm
83,32,90,160,48,120,50,274.999 kg,9.75987 MPa,0.0412933 mm
84,32,90,160,48,120,60,295.159 kg,9.99104 MPa,0.0349789 mm
85,32,90,160,48,150,40,274.999 kg,7.32148 MPa,0.0442786 mm
86,32,90,160,48,150,50,300.199 kg,8.36349 MPa,0.0367906 mm
87,32,90,160,48,150,60,325.399 kg,8.39301 MPa,0.0311207 mm
88,32,90,160,48,180,40,295.159 kg,7.93413 MPa,0.0404841 mm
89,32,90,160,48,180,50,325.399 kg,6.91876 MPa,0.0333446 mm
90,32,90,160,48,180,60,355.639 kg,7.34293 MPa,0.028367 mm
91,32,90,160,60,120,40,287.095 kg,8.78729 MPa,0.0411668 mm
92,32,90,160,60,120,50,307.255 kg,5.65469 MPa,0.0346062 mm
93,32,90,160,60,120,60,327.415 kg,4.09224 MPa,0.0296688 mm
94,32,90,160,60,150,40,307.255 kg,5.13708 MPa,0.0369426 mm
95,32,90,160,60,150,50,332.455 kg,5.27014 MPa,0.0307726 mm
96,32,90,160,60,150,60,357.655 kg,3.761 MPa,0.0263575 mm
97,32,90,160,60,180,40,327.415 kg,4.8372 MPa,0.0338219 mm
98,32,90,160,60,180,50,357.655 kg,4.77279 MPa,0.0281481 mm
99,32,90,160,60,180,60,387.895 kg,3.83608 MPa,0.0240587 mm
100,32,90,160,72,120,40,319.351 kg,5.08934 MPa,0.0348583 mm
101,32,90,160,72,120,50,339.511 kg,3.6757 MPa,0.028031 mm
102,32,90,160,72,120,60,359.671 kg,3.25284 MPa,0.0242637 mm
103,32,90,160,72,150,40,339.511 kg,4.71803 MPa,0.0312024 mm
104,32,90,160,72,150,50,364.711 kg,3.2951 MPa,0.0250716 mm
105,32,90,160,72,150,60,389.911 kg,3.03118 MPa,0.0216523 mm
106,32,90,160,72,180,40,359.671 kg,4.42217 MPa,0.0286389 mm
107,32,90,160,72,180,50,389.911 kg,3.28874 MPa,0.0231352 mm
108,32,90,160,72,180,60,420.151 kg,2.74333 MPa,0.0198395 mm
109,32,90,200,48,120,40,286.293 kg,11.342 MPa,0.0468937 mm
110,32,90,200,48,120,50,306.453 kg,10.0727 MPa,0.0392792 mm
111,32,90,200,48,120,60,326.613 kg,8.3477 MPa,0.033532 mm
112,32,90,200,48,150,40,306.453 kg,10.4485 MPa,0.0418103 mm
113,32,90,200,48,150,50,331.653 kg,9.03963 MPa,0.0349534 mm
114,32,90,200,48,150,60,356.853 kg,7.28237 MPa,0.029761 mm
115,32,90,200,48,180,40,326.613 kg,9.79664 MPa,0.0382631 mm
116,32,90,200,48,180,50,356.853 kg,7.75294 MPa,0.0318658 mm
117,32,90,200,48,180,60,387.093 kg,7.33426 MPa,0.0270957 mm
118,32,90,200,60,120,40,326.613 kg,6.19984 MPa,0.0390582 mm
119,32,90,200,60,120,50,346.773 kg,4.11815 MPa,0.0331632 mm
120,32,90,200,60,120,60,366.933 kg,3.73448 MPa,0.028355 mm
121,32,90,200,60,150,40,346.773 kg,4.23027 MPa,0.0350603 mm
122,32,90,200,60,150,50,371.973 kg,4.1366 MPa,0.0294587 mm
123,32,90,200,60,150,60,397.173 kg,4.28365 MPa,0.0251775 mm
124,32,90,200,60,180,40,366.933 kg,4.43385 MPa,0.0321408 mm
125,32,90,200,60,180,50,397.173 kg,3.5438 MPa,0.0268872 mm
126,32,90,200,60,180,60,427.413 kg,3.20726 MPa,0.0229463 mm
127,32,90,200,72,120,40,366.933 kg,4.40908 MPa,0.0330636 mm
128,32,90,200,72,120,50,387.093 kg,3.41821 MPa,0.0267091 mm
129,32,90,200,72,120,60,407.253 kg,3.04935 MPa,0.0231412 mm
130,32,90,200,72,150,40,387.093 kg,4.91331 MPa,0.0294513 mm
131,32,90,200,72,150,50,412.293 kg,3.14691 MPa,0.0239009 mm
132,32,90,200,72,150,60,437.493 kg,3.29705 MPa,0.0206414 mm
133,32,90,200,72,180,40,407.253 kg,3.84874 MPa,0.0271764 mm
134,32,90,200,72,180,50,437.493 kg,3.8283 MPa,0.0218476 mm
135,32,90,200,72,180,60,467.733 kg,3.32686 MPa,0.018868 mm
136,32,90,240,48,120,40,317.747 kg,6.57898 MPa,0.0394891 mm
137,32,90,240,48,120,50,337.907 kg,6.71198 MPa,0.0324869 mm
138,32,90,240,48,120,60,358.067 kg,7.33245 MPa,0.028322 mm
139,32,90,240,48,150,40,337.907 kg,8.33099 MPa,0.0362819 mm
140,32,90,240,48,150,50,363.107 kg,6.42103 MPa,0.02933 mm
141,32,90,240,48,150,60,388.307 kg,9.73655 MPa,0.0256945 mm
142,32,90,240,48,180,40,358.067 kg,9.30172 MPa,0.0329199 mm
143,32,90,240,48,180,50,388.307 kg,7.40472 MPa,0.0276834 mm
144,32,90,240,48,180,60,418.547 kg,4.88711 MPa,0.0238743 mm
145,32,90,240,60,120,40,366.131 kg,4.44732 MPa,0.0352188 mm
146,32,90,240,60,120,50,386.291 kg,3.93055 MPa,0.0298973 mm
147,32,90,240,60,120,60,406.451 kg,5.58285 MPa,0.0257366 mm
148,32,90,240,60,150,40,386.291 kg,4.20046 MPa,0.0316456 mm
149,32,90,240,60,150,50,411.491 kg,4.54436 MPa,0.0267072 mm
150,32,90,240,60,150,60,436.691 kg,3.40437 MPa,0.023011 mm
151,32,90,240,60,180,40,406.451 kg,3.96677 MPa,0.028946 mm
152,32,90,240,60,180,50,436.691 kg,4.1081 MPa,0.0243918 mm
153,32,90,240,60,180,60,466.931 kg,4.09176 MPa,0.0209304 mm
154,32,90,240,72,120,40,414.515 kg,5.21899 MPa,0.0300633 mm
155,32,90,240,72,120,50,434.675 kg,3.32151 MPa,0.025652 mm
156,32,90,240,72,120,60,454.835 kg,2.84676 MPa,0.0222277 mm
157,32,90,240,72,150,40,434.675 kg,3.39398 MPa,0.0269335 mm
158,32,90,240,72,150,50,459.875 kg,5.33566 MPa,0.0228964 mm
159,32,90,240,72,150,60,485.075 kg,5.98938 MPa,0.0199036 mm
160,32,90,240,72,180,40,454.835 kg,3.5242 MPa,0.0248141 mm
161,32,90,240,72,180,50,485.075 kg,2.72455 MPa,0.0209534 mm
162,32,90,240,72,180,60,515.315 kg,4.65776 MPa,0.0181863 mm
163,32,108,160,48,120,40,264.516 kg,10.6651 MPa,0.039667 mm
164,32,108,160,48,120,50,284.676 kg,10.4716 MPa,0.0333899 mm
165,32,108,160,48,120,60,304.836 kg,7.10213 MPa,0.0253296 mm
166,32,108,160,48,150,40,284.676 kg,10.693 MPa,0.0354475 mm
167,32,108,160,48,150,50,309.876 kg,8.88652 MPa,0.0297582 mm
168,32,108,160,48,150,60,335.076 kg,6.56454 MPa,0.0230953 mm
169,32,108,160,48,180,40,304.836 kg,9.28165 MPa,0.0324488 mm
170,32,108,160,48,180,50,335.076 kg,8.38345 MPa,0.0272194 mm
171,32,108,160,48,180,60,365.316 kg,4.32563 MPa,0.0215466 mm
172,32,108,160,60,120,40,296.772 kg,4.44977 MPa,0.0336568 mm
173,32,108,160,60,120,50,316.932 kg,3.4271 MPa,0.0270502 mm
174,32,108,160,60,120,60,337.092 kg,3.76728 MPa,0.0234947 mm
175,32,108,160,60,150,40,316.932 kg,4.11662 MPa,0.0301181 mm
176,32,108,160,60,150,50,342.132 kg,3.4795 MPa,0.0241939 mm
177,32,108,160,60,150,60,367.332 kg,3.32768 MPa,0.0209691 mm
178,32,108,160,60,180,40,337.092 kg,3.85504 MPa,0.0276629 mm
179,32,108,160,60,180,50,367.332 kg,2.78642 MPa,0.0221941 mm
180,32,108,160,60,180,60,397.572 kg,3.69823 MPa,0.0191696 mm
181,32,108,160,72,120,40,329.028 kg,3.4444 MPa,0.0274132 mm
182,32,108,160,72,120,50,349.188 kg,3.24745 MPa,0.0236313 mm
183,32,108,160,72,120,60,369.348 kg,2.81167 MPa,0.0204999 mm
184,32,108,160,72,150,40,349.188 kg,3.08591 MPa,0.0247305 mm
185,32,108,160,72,150,50,374.388 kg,2.64541 MPa,0.0211004 mm
186,32,108,160,72,150,60,399.588 kg,2.4139 MPa,0.0184026 mm
187,32,108,160,72,180,40,369.348 kg,2.80328 MPa,0.0227882 mm
188,32,108,160,72,180,50,399.588 kg,2.66049 MPa,0.0193493 mm
189,32,108,160,72,180,60,429.828 kg,2.1298 MPa,0.0168197 mm
190,32,108,200,48,120,40,295.97 kg,10.9662 MPa,0.0379656 mm
191,32,108,200,48,120,50,316.13 kg,9.6232 MPa,0.0320366 mm
192,32,108,200,48,120,60,336.29 kg,5.58891 MPa,0.0250609 mm
193,32,108,200,48,150,40,316.13 kg,8.54759 MPa,0.033959 mm
194,32,108,200,48,150,50,341.33 kg,8.48583 MPa,0.0285592 mm
195,32,108,200,48,150,60,366.53 kg,3.87085 MPa,0.0221135 mm
196,32,108,200,48,180,40,336.29 kg,7.76716 MPa,0.0311182 mm
197,32,108,200,48,180,50,366.53 kg,7.6144 MPa,0.0260745 mm
198,32,108,200,48,180,60,396.77 kg,4.82403 MPa,0.0206267 mm
199,32,108,200,60,120,40,336.29 kg,4.18874 MPa,0.0321743 mm
200,32,108,200,60,120,50,356.45 kg,3.96546 MPa,0.0258758 mm
201,32,108,200,60,120,60,376.61 kg,3.68829 MPa,0.0225091 mm
202,32,108,200,60,150,40,356.45 kg,3.91248 MPa,0.0287955 mm
203,32,108,200,60,150,50,381.65 kg,3.97203 MPa,0.0232724 mm
204,32,108,200,60,150,60,406.85 kg,3.41121 MPa,0.0200582 mm
205,32,108,200,60,180,40,376.61 kg,3.98874 MPa,0.0264348 mm
206,32,108,200,60,180,50,406.85 kg,3.3281 MPa,0.0210853 mm
207,32,108,200,60,180,60,437.09 kg,4.36942 MPa,0.0183582 mm
208,32,108,200,72,120,40,376.61 kg,3.36321 MPa,0.0261873 mm
209,32,108,200,72,120,50,396.77 kg,5.31419 MPa,0.0226067 mm
210,32,108,200,72,120,60,416.93 kg,2.97327 MPa,0.0196565 mm
211,32,108,200,72,150,40,396.77 kg,3.29397 MPa,0.0235905 mm
212,32,108,200,72,150,50,421.97 kg,2.59965 MPa,0.0201904 mm
213,32,108,200,72,150,60,447.17 kg,3.05337 MPa,0.0175859 mm
214,32,108,200,72,180,40,416.93 kg,3.48766 MPa,0.0217122 mm
215,32,108,200,72,180,50,447.17 kg,2.62916 MPa,0.0185027 mm
216,32,108,200,72,180,60,477.41 kg,3.05547 MPa,0.0161115 mm
217,32,108,240,48,120,40,327.424 kg,6.8542 MPa,0.0323217 mm
218,32,108,240,48,120,50,347.584 kg,5.4549 MPa,0.0278837 mm
219,32,108,240,48,120,60,367.744 kg,8.49538 MPa,0.0241843 mm
220,32,108,240,48,150,40,347.584 kg,4.6275 MPa,0.0298312 mm
221,32,108,240,48,150,50,372.784 kg,6.27266 MPa,0.0241243 mm
222,32,108,240,48,150,60,397.984 kg,7.01652 MPa,0.0213794 mm
223,32,108,240,48,180,40,367.744 kg,4.5452 MPa,0.0273173 mm
224,32,108,240,48,180,50,397.984 kg,5.02501 MPa,0.0217303 mm
225,32,108,240,48,180,60,428.224 kg,7.83747 MPa,0.0198322 mm
226,32,108,240,60,120,40,375.808 kg,4.17775 MPa,0.0290487 mm
227,32,108,240,60,120,50,395.968 kg,3.85862 MPa,0.0249447 mm
228,32,108,240,60,120,60,416.128 kg,3.57495 MPa,0.0216805 mm
229,32,108,240,60,150,40,395.968 kg,3.72387 MPa,0.0261924 mm
230,32,108,240,60,150,50,421.168 kg,3.6745 MPa,0.0223325 mm
231,32,108,240,60,150,60,446.368 kg,4.82494 MPa,0.0194188 mm
232,32,108,240,60,180,40,416.128 kg,3.14618 MPa,0.0240224 mm
233,32,108,240,60,180,50,446.368 kg,2.59236 MPa,0.0204508 mm
234,32,108,240,60,180,60,476.608 kg,3.23485 MPa,0.0177055 mm
235,32,108,240,72,120,40,424.192 kg,3.55609 MPa,0.0252155 mm
236,32,108,240,72,120,50,444.352 kg,2.72755 MPa,0.0216445 mm
237,32,108,240,72,120,60,464.512 kg,3.26832 MPa,0.0189596 mm
238,32,108,240,72,150,40,444.352 kg,3.85033 MPa,0.0227594 mm
239,32,108,240,72,150,50,469.552 kg,2.43422 MPa,0.0194608 mm
240,32,108,240,72,150,60,494.752 kg,2.38469 MPa,0.0169782 mm
241,32,108,240,72,180,40,464.512 kg,2.74755 MPa,0.020865 mm
242,32,108,240,72,180,50,494.752 kg,2.55258 MPa,0.0178934 mm
243,32,108,240,72,180,60,524.992 kg,2.31181 MPa,0.0155798 mm
244,40,72,160,48,120,40,254.839 kg,9.40733 MPa,0.059983 mm
245,40,72,160,48,120,50,274.999 kg,6.62749 MPa,0.0497509 mm
246,40,72,160,48,120,60,295.159 kg,8.17956 MPa,0.0421205 mm
247,40,72,160,48,150,40,274.999 kg,7.3827 MPa,0.0535778 mm
248,40,72,160,48,150,50,300.199 kg,5.76436 MPa,0.0442506 mm
249,40,72,160,48,150,60,325.399 kg,7.04482 MPa,0.037374 mm
250,40,72,160,48,180,40,295.159 kg,9.08398 MPa,0.0491419 mm
251,40,72,160,48,180,50,325.399 kg,7.44452 MPa,0.0404803 mm
252,40,72,160,48,180,60,355.639 kg,6.59903 MPa,0.0339709 mm
253,40,72,160,60,120,40,287.095 kg,5.74237 MPa,0.0495551 mm
254,40,72,160,60,120,50,307.255 kg,4.97082 MPa,0.0412961 mm
255,40,72,160,60,120,60,327.415 kg,4.64081 MPa,0.0349188 mm
256,40,72,160,60,150,40,307.255 kg,5.76617 MPa,0.0442523 mm
257,40,72,160,60,150,50,332.455 kg,4.62215 MPa,0.0367767 mm
258,40,72,160,60,150,60,357.655 kg,4.3282 MPa,0.0310231 mm
259,40,72,160,60,180,40,327.415 kg,4.99593 MPa,0.0404333 mm
260,40,72,160,60,180,50,357.655 kg,4.40719 MPa,0.0334943 mm
261,40,72,160,60,180,60,387.895 kg,4.45192 MPa,0.0282765 mm
262,40,72,160,72,120,40,319.351 kg,5.95207 MPa,0.0409 mm
263,40,72,160,72,120,50,339.511 kg,5.01962 MPa,0.0344966 mm
264,40,72,160,72,120,60,359.671 kg,4.59905 MPa,0.0295272 mm
265,40,72,160,72,150,40,339.511 kg,5.1474 MPa,0.0367375 mm
266,40,72,160,72,150,50,364.711 kg,4.64774 MPa,0.0307697 mm
267,40,72,160,72,150,60,389.911 kg,4.2414 MPa,0.0262347 mm
268,40,72,160,72,180,40,359.671 kg,4.84423 MPa,0.0336372 mm
269,40,72,160,72,180,50,389.911 kg,4.3593 MPa,0.028078 mm
270,40,72,160,72,180,60,420.151 kg,3.96138 MPa,0.0239074 mm
271,40,72,200,48,120,40,286.293 kg,13.7804 MPa,0.05652 mm
272,40,72,200,48,120,50,306.453 kg,12.3697 MPa,0.0469513 mm
273,40,72,200,48,120,60,326.613 kg,10.1739 MPa,0.0396138 mm
274,40,72,200,48,150,40,306.453 kg,13.3502 MPa,0.0504673 mm
275,40,72,200,48,150,50,331.653 kg,11.1991 MPa,0.0417444 mm
276,40,72,200,48,150,60,356.853 kg,9.29454 MPa,0.035149 mm
277,40,72,200,48,180,40,326.613 kg,11.368 MPa,0.0461373 mm
278,40,72,200,48,180,50,356.853 kg,9.5988 MPa,0.0380069 mm
279,40,72,200,48,180,60,387.093 kg,8.12699 MPa,0.0319502 mm
280,40,72,200,60,120,40,326.613 kg,6.78036 MPa,0.0462409 mm
281,40,72,200,60,120,50,346.773 kg,6.16524 MPa,0.0387335 mm
282,40,72,200,60,120,60,366.933 kg,5.57365 MPa,0.0330883 mm
283,40,72,200,60,150,40,346.773 kg,6.15368 MPa,0.0414779 mm
284,40,72,200,60,150,50,371.973 kg,5.7104 MPa,0.0345311 mm
285,40,72,200,60,150,60,397.173 kg,4.95568 MPa,0.0292554 mm
286,40,72,200,60,180,40,366.933 kg,4.37217 MPa,0.0380321 mm
287,40,72,200,60,180,50,397.173 kg,4.56751 MPa,0.0315684 mm
288,40,72,200,60,180,60,427.413 kg,3.56444 MPa,0.026792 mm
289,40,72,200,72,120,40,366.933 kg,4.89434 MPa,0.0385527 mm
290,40,72,200,72,120,50,387.093 kg,4.41259 MPa,0.0325963 mm
291,40,72,200,72,120,60,407.253 kg,4.00461 MPa,0.028007 mm
292,40,72,200,72,150,40,387.093 kg,4.57573 MPa,0.0345578 mm
293,40,72,200,72,150,50,412.293 kg,4.09035 MPa,0.029047 mm
294,40,72,200,72,150,60,437.493 kg,3.69144 MPa,0.0248684 mm
295,40,72,200,72,180,40,407.253 kg,4.30482 MPa,0.0316545 mm
296,40,72,200,72,180,50,437.493 kg,3.83293 MPa,0.0264979 mm
297,40,72,200,72,180,60,467.733 kg,3.45757 MPa,0.0226426 mm
298,40,72,240,48,120,40,317.747 kg,6.7132 MPa,0.0488274 mm
299,40,72,240,48,120,50,337.907 kg,7.50301 MPa,0.0402596 mm
300,40,72,240,48,120,60,358.067 kg,7.04154 MPa,0.0338429 mm
301,40,72,240,48,150,40,337.907 kg,6.42982 MPa,0.0428665 mm
302,40,72,240,48,150,50,363.107 kg,6.93578 MPa,0.0357945 mm
303,40,72,240,48,150,60,388.307 kg,5.20848 MPa,0.0299495 mm
304,40,72,240,48,180,40,358.067 kg,6.5159 MPa,0.0392883 mm
305,40,72,240,48,180,50,388.307 kg,5.82445 MPa,0.0314372 mm
306,40,72,240,48,180,60,418.547 kg,5.42927 MPa,0.0270536 mm
307,40,72,240,60,120,40,366.131 kg,4.58271 MPa,0.0414243 mm
308,40,72,240,60,120,50,386.291 kg,4.21691 MPa,0.0348394 mm
309,40,72,240,60,120,60,406.451 kg,4.04835 MPa,0.0297449 mm
310,40,72,240,60,150,40,386.291 kg,4.3182 MPa,0.0371897 mm
311,40,72,240,60,150,50,411.491 kg,4.05858 MPa,0.031076 mm
312,40,72,240,60,150,60,436.691 kg,3.89491 MPa,0.0265199 mm
313,40,72,240,60,180,40,406.451 kg,4.00889 MPa,0.0339536 mm
314,40,72,240,60,180,50,436.691 kg,3.59605 MPa,0.0283189 mm
315,40,72,240,60,180,60,466.931 kg,3.54895 MPa,0.0241229 mm
316,40,72,240,72,120,40,414.515 kg,4.00081 MPa,0.0345473 mm
317,40,72,240,72,120,50,434.675 kg,3.74941 MPa,0.0293858 mm
318,40,72,240,72,120,60,454.835 kg,3.2865 MPa,0.025455 mm
319,40,72,240,72,150,40,434.675 kg,3.58312 MPa,0.0311655 mm
320,40,72,240,72,150,50,459.875 kg,3.21649 MPa,0.0263025 mm
321,40,72,240,72,150,60,485.075 kg,2.91669 MPa,0.0226104 mm
322,40,72,240,72,180,40,454.835 kg,3.45392 MPa,0.0286643 mm
323,40,72,240,72,180,50,485.075 kg,2.96326 MPa,0.0239818 mm
324,40,72,240,72,180,60,515.315 kg,2.66439 MPa,0.0205657 mm
325,40,90,160,48,120,40,266.935 kg,6.38321 MPa,0.0470701 mm
326,40,90,160,48,120,50,287.095 kg,9.58007 MPa,0.0393138 mm
327,40,90,160,48,120,60,307.255 kg,9.53644 MPa,0.0333514 mm
328,40,90,160,48,150,40,287.095 kg,5.50172 MPa,0.0421 mm
329,40,90,160,48,150,50,312.295 kg,8.24521 MPa,0.0349536 mm
330,40,90,160,48,150,60,337.495 kg,8.17784 MPa,0.0296832 mm
331,40,90,160,48,180,40,307.255 kg,7.51016 MPa,0.0385223 mm
332,40,90,160,48,180,50,337.495 kg,7.17714 MPa,0.0318579 mm
333,40,90,160,48,180,60,367.735 kg,7.53777 MPa,0.0270263 mm
334,40,90,160,60,120,40,299.191 kg,4.98023 MPa,0.0391211 mm
335,40,90,160,60,120,50,319.351 kg,5.68151 MPa,0.0329543 mm
336,40,90,160,60,120,60,339.511 kg,4.10236 MPa,0.0282886 mm
337,40,90,160,60,150,40,319.351 kg,7.48565 MPa,0.0348125 mm
338,40,90,160,60,150,50,344.551 kg,5.28808 MPa,0.0293416 mm
339,40,90,160,60,150,60,369.751 kg,6.01078 MPa,0.0251421 mm
340,40,90,160,60,180,40,339.511 kg,4.75471 MPa,0.0322008 mm
341,40,90,160,60,180,50,369.751 kg,4.93114 MPa,0.0268069 mm
342,40,90,160,60,180,60,399.991 kg,7.97238 MPa,0.0229325 mm
343,40,90,160,72,120,40,331.447 kg,4.95345 MPa,0.0330863 mm
344,40,90,160,72,120,50,351.607 kg,3.84743 MPa,0.0267247 mm
345,40,90,160,72,120,60,371.767 kg,3.32699 MPa,0.0230805 mm
346,40,90,160,72,150,40,351.607 kg,4.60198 MPa,0.0296636 mm
347,40,90,160,72,150,50,376.807 kg,2.88554 MPa,0.0238318 mm
348,40,90,160,72,150,60,402.007 kg,3.28415 MPa,0.0206724 mm
349,40,90,160,72,180,40,371.767 kg,6.11814 MPa,0.0270912 mm
350,40,90,160,72,180,50,402.007 kg,3.65071 MPa,0.0220184 mm
351,40,90,160,72,180,60,432.247 kg,3.0344 MPa,0.0189165 mm
352,40,90,200,48,120,40,298.389 kg,10.4903 MPa,0.0443618 mm
353,40,90,200,48,120,50,318.549 kg,9.18816 MPa,0.0373262 mm
354,40,90,200,48,120,60,338.709 kg,8.95058 MPa,0.0319001 mm
355,40,90,200,48,150,40,318.549 kg,10.5264 MPa,0.0396709 mm
356,40,90,200,48,150,50,343.749 kg,9.14783 MPa,0.0331964 mm
357,40,90,200,48,150,60,368.949 kg,7.41164 MPa,0.0283079 mm
358,40,90,200,48,180,40,338.709 kg,10.1905 MPa,0.0361868 mm
359,40,90,200,48,180,50,368.949 kg,8.70598 MPa,0.0302082 mm
360,40,90,200,48,180,60,399.189 kg,7.58861 MPa,0.0257134 mm
361,40,90,200,60,120,40,338.709 kg,5.98058 MPa,0.0371096 mm
362,40,90,200,60,120,50,358.869 kg,5.61983 MPa,0.0313574 mm
363,40,90,200,60,120,60,379.029 kg,3.79065 MPa,0.0269592 mm
364,40,90,200,60,150,40,358.869 kg,5.60356 MPa,0.0331949 mm
365,40,90,200,60,150,50,384.069 kg,3.65073 MPa,0.0280347 mm
366,40,90,200,60,150,60,409.269 kg,3.37605 MPa,0.0239557 mm
367,40,90,200,60,180,40,379.029 kg,3.92475 MPa,0.030452 mm
368,40,90,200,60,180,50,409.269 kg,4.48742 MPa,0.0255009 mm
369,40,90,200,60,180,60,439.509 kg,3.13946 MPa,0.0218116 mm
370,40,90,200,72,120,40,379.029 kg,4.30174 MPa,0.0313616 mm
371,40,90,200,72,120,50,399.189 kg,3.27454 MPa,0.0254679 mm
372,40,90,200,72,120,60,419.349 kg,4.25023 MPa,0.0219935 mm
373,40,90,200,72,150,40,399.189 kg,4.00328 MPa,0.0281545 mm
374,40,90,200,72,150,50,424.389 kg,3.57422 MPa,0.0227035 mm
375,40,90,200,72,150,60,449.589 kg,3.06482 MPa,0.0196342 mm
376,40,90,200,72,180,40,419.349 kg,3.76862 MPa,0.0258322 mm
377,40,90,200,72,180,50,449.589 kg,4.09113 MPa,0.0207748 mm
378,40,90,200,72,180,60,479.829 kg,3.11807 MPa,0.0179162 mm
379,40,90,240,48,120,40,329.843 kg,7.06231 MPa,0.0382082 mm
380,40,90,240,48,120,50,350.003 kg,4.91275 MPa,0.0324806 mm
381,40,90,240,48,120,60,370.163 kg,5.68283 MPa,0.0279385 mm
382,40,90,240,48,150,40,350.003 kg,9.08109 MPa,0.0340831 mm
383,40,90,240,48,150,50,375.203 kg,6.34124 MPa,0.0287572 mm
384,40,90,240,48,150,60,400.403 kg,4.58591 MPa,0.0247571 mm
385,40,90,240,48,180,40,370.163 kg,4.72813 MPa,0.0306567 mm
386,40,90,240,48,180,50,400.403 kg,6.49735 MPa,0.0262822 mm
387,40,90,240,48,180,60,430.643 kg,4.8522 MPa,0.0225226 mm
388,40,90,240,60,120,40,378.227 kg,4.37324 MPa,0.0332973 mm
389,40,90,240,60,120,50,398.387 kg,3.81585 MPa,0.0283024 mm
390,40,90,240,60,120,60,418.547 kg,3.72302 MPa,0.0244676 mm
391,40,90,240,60,150,40,398.387 kg,4.27811 MPa,0.0299249 mm
392,40,90,240,60,150,50,423.587 kg,3.89905 MPa,0.0253278 mm
393,40,90,240,60,150,60,448.787 kg,3.05043 MPa,0.0218052 mm
394,40,90,240,60,180,40,418.547 kg,3.73588 MPa,0.0273793 mm
395,40,90,240,60,180,50,448.787 kg,3.74729 MPa,0.0231558 mm
396,40,90,240,60,180,60,479.027 kg,4.69538 MPa,0.0198671 mm
397,40,90,240,72,120,40,426.611 kg,3.52007 MPa,0.0283259 mm
398,40,90,240,72,120,50,446.771 kg,3.06698 MPa,0.0242718 mm
399,40,90,240,72,120,60,466.931 kg,2.78427 MPa,0.0210906 mm
400,40,90,240,72,150,40,446.771 kg,3.30196 MPa,0.0255407 mm
401,40,90,240,72,150,50,471.971 kg,2.77884 MPa,0.0217564 mm
402,40,90,240,72,150,60,497.171 kg,2.52265 MPa,0.0188567 mm
403,40,90,240,72,180,40,466.931 kg,2.98381 MPa,0.0234209 mm
404,40,90,240,72,180,50,497.171 kg,3.27442 MPa,0.0198994 mm
405,40,90,240,72,180,60,527.411 kg,3.41423 MPa,0.0172147 mm
406,40,108,160,48,120,40,279.031 kg,10.5947 MPa,0.037356 mm
407,40,108,160,48,120,50,299.191 kg,9.84283 MPa,0.0315845 mm
408,40,108,160,48,120,60,319.351 kg,5.10946 MPa,0.0247987 mm
409,40,108,160,48,150,40,299.191 kg,9.10958 MPa,0.0335218 mm
410,40,108,160,48,150,50,324.391 kg,9.28287 MPa,0.0281974 mm
411,40,108,160,48,150,60,349.591 kg,6.31748 MPa,0.0216672 mm
412,40,108,160,48,180,40,319.351 kg,8.58468 MPa,0.0307263 mm
413,40,108,160,48,180,50,349.591 kg,8.14176 MPa,0.0257769 mm
414,40,108,160,48,180,60,379.831 kg,5.86922 MPa,0.0204882 mm
415,40,108,160,60,120,40,311.287 kg,4.39255 MPa,0.031734 mm
416,40,108,160,60,120,50,331.447 kg,3.45371 MPa,0.0255478 mm
417,40,108,160,60,120,60,351.607 kg,3.3306 MPa,0.0222198 mm
418,40,108,160,60,150,40,331.447 kg,4.01931 MPa,0.0284601 mm
419,40,108,160,60,150,50,356.647 kg,2.91069 MPa,0.02295 mm
420,40,108,160,60,150,60,381.847 kg,4.00527 MPa,0.0198266 mm
421,40,108,160,60,180,40,351.607 kg,3.77124 MPa,0.0261403 mm
422,40,108,160,60,180,50,381.847 kg,3.93931 MPa,0.0209977 mm
423,40,108,160,60,180,60,412.087 kg,6.02436 MPa,0.0181403 mm
424,40,108,160,72,120,40,343.543 kg,6.50685 MPa,0.0258167 mm
425,40,108,160,72,120,50,363.703 kg,3.476 MPa,0.0222857 mm
426,40,108,160,72,120,60,383.863 kg,4.42438 MPa,0.01944 mm
427,40,108,160,72,150,40,363.703 kg,2.83349 MPa,0.0232291 mm
428,40,108,160,72,150,50,388.903 kg,2.49459 MPa,0.0199301 mm
429,40,108,160,72,150,60,414.103 kg,2.33064 MPa,0.0173962 mm
430,40,108,160,72,180,40,383.863 kg,2.84349 MPa,0.0213818 mm
431,40,108,160,72,180,50,414.103 kg,2.77602 MPa,0.0183513 mm
432,40,108,160,72,180,60,444.343 kg,2.79168 MPa,0.0159557 mm
433,40,108,200,48,120,40,310.485 kg,10.4949 MPa,0.0357182 mm
434,40,108,200,48,120,50,330.645 kg,8.80076 MPa,0.0302455 mm
435,40,108,200,48,120,60,350.805 kg,5.79749 MPa,0.0233208 mm
436,40,108,200,48,150,40,330.645 kg,9.85958 MPa,0.0319981 mm
437,40,108,200,48,150,50,355.845 kg,8.53257 MPa,0.0269786 mm
438,40,108,200,48,150,60,381.045 kg,6.1454 MPa,0.0209574 mm
439,40,108,200,48,180,40,350.805 kg,7.85312 MPa,0.0293053 mm
440,40,108,200,48,180,50,381.045 kg,7.83755 MPa,0.0246339 mm
441,40,108,200,48,180,60,411.285 kg,4.35086 MPa,0.0194419 mm
442,40,108,200,60,120,40,350.805 kg,4.96773 MPa,0.0302417 mm
443,40,108,200,60,120,50,370.965 kg,2.93828 MPa,0.0243394 mm
444,40,108,200,60,120,60,391.125 kg,4.85461 MPa,0.0212026 mm
445,40,108,200,60,150,40,370.965 kg,3.65854 MPa,0.0271526 mm
446,40,108,200,60,150,50,396.165 kg,3.47759 MPa,0.0218067 mm
447,40,108,200,60,150,60,421.365 kg,4.01813 MPa,0.0189236 mm
448,40,108,200,60,180,40,391.125 kg,3.71372 MPa,0.0249584 mm
449,40,108,200,60,180,50,421.365 kg,4.67509 MPa,0.0199696 mm
450,40,108,200,60,180,60,451.605 kg,3.16697 MPa,0.017295 mm
451,40,108,200,72,120,40,391.125 kg,2.91908 MPa,0.024614 mm
452,40,108,200,72,120,50,411.285 kg,2.78394 MPa,0.0212479 mm
453,40,108,200,72,120,60,431.445 kg,2.27708 MPa,0.0186204 mm
454,40,108,200,72,150,40,411.285 kg,2.57946 MPa,0.0221769 mm
455,40,108,200,72,150,50,436.485 kg,3.04048 MPa,0.0190914 mm
456,40,108,200,72,150,60,461.685 kg,2.16531 MPa,0.0166216 mm
457,40,108,200,72,180,40,431.445 kg,2.99583 MPa,0.0204102 mm
458,40,108,200,72,180,50,461.685 kg,2.37862 MPa,0.0174828 mm
459,40,108,200,72,180,60,491.925 kg,3.78257 MPa,0.0151921 mm
460,40,108,240,48,120,40,341.939 kg,5.39063 MPa,0.029074 mm
461,40,108,240,48,120,50,362.099 kg,4.22376 MPa,0.0263257 mm
462,40,108,240,48,120,60,382.259 kg,3.35006 MPa,0.0216623 mm
463,40,108,240,48,150,40,362.099 kg,5.3621 MPa,0.0269594 mm
464,40,108,240,48,150,50,387.299 kg,5.39751 MPa,0.0227521 mm
465,40,108,240,48,150,60,412.499 kg,5.60631 MPa,0.0205424 mm
466,40,108,240,48,180,40,382.259 kg,5.59312 MPa,0.0254942 mm
467,40,108,240,48,180,50,412.499 kg,7.1752 MPa,0.020802 mm
468,40,108,240,48,180,60,442.739 kg,5.13524 MPa,0.0183258 mm
469,40,108,240,60,120,40,390.323 kg,3.28685 MPa,0.0273384 mm
470,40,108,240,60,120,50,410.483 kg,3.5145 MPa,0.0235118 mm
471,40,108,240,60,120,60,430.643 kg,2.82135 MPa,0.0204696 mm
472,40,108,240,60,150,40,410.483 kg,3.67156 MPa,0.0246245 mm
473,40,108,240,60,150,50,435.683 kg,4.05629 MPa,0.0210494 mm
474,40,108,240,60,150,60,460.883 kg,4.01161 MPa,0.0182827 mm
475,40,108,240,60,180,40,430.643 kg,4.30692 MPa,0.0226307 mm
476,40,108,240,60,180,50,460.883 kg,4.03597 MPa,0.01924 mm
477,40,108,240,60,180,60,491.123 kg,3.19152 MPa,0.0166363 mm
478,40,108,240,72,120,40,438.707 kg,2.99272 MPa,0.0236318 mm
479,40,108,240,72,120,50,458.867 kg,3.10062 MPa,0.0204207 mm
480,40,108,240,72,120,60,479.027 kg,2.34533 MPa,0.0179073 mm
481,40,108,240,72,150,40,458.867 kg,5.26451 MPa,0.0213148 mm
482,40,108,240,72,150,50,484.067 kg,2.46965 MPa,0.0183466 mm
483,40,108,240,72,150,60,509.267 kg,2.6226 MPa,0.0160203 mm
484,40,108,240,72,180,40,479.027 kg,2.59803 MPa,0.0196103 mm
485,40,108,240,72,180,50,509.267 kg,3.54356 MPa,0.0168083 mm
486,40,108,240,72,180,60,539.507 kg,3.20727 MPa,0.0146237 mm
487,48,72,160,48,120,40,264.516 kg,10.4316 MPa,0.0577088 mm
488,48,72,160,48,120,50,284.676 kg,8.07271 MPa,0.0480235 mm
489,48,72,160,48,120,60,304.836 kg,8.29452 MPa,0.0407148 mm
490,48,72,160,48,150,40,284.676 kg,8.33514 MPa,0.0516346 mm
491,48,72,160,48,150,50,309.876 kg,5.93687 MPa,0.042744 mm
492,48,72,160,48,150,60,335.076 kg,6.81839 MPa,0.0360503 mm
493,48,72,160,48,180,40,304.836 kg,8.68528 MPa,0.0473517 mm
494,48,72,160,48,180,50,335.076 kg,7.84692 MPa,0.0390827 mm
495,48,72,160,48,180,60,365.316 kg,6.70639 MPa,0.0328469 mm
496,48,72,160,60,120,40,296.772 kg,6.03487 MPa,0.0476588 mm
497,48,72,160,60,120,50,316.932 kg,4.9934 MPa,0.0398406 mm
498,48,72,160,60,120,60,337.092 kg,4.46867 MPa,0.0338625 mm
499,48,72,160,60,150,40,316.932 kg,5.60571 MPa,0.0426845 mm
500,48,72,160,60,150,50,342.132 kg,4.86751 MPa,0.0355396 mm
501,48,72,160,60,150,60,367.332 kg,4.03916 MPa,0.0300656 mm
502,48,72,160,60,180,40,337.092 kg,5.21869 MPa,0.0389292 mm
503,48,72,160,60,180,50,367.332 kg,4.41399 MPa,0.032327 mm
504,48,72,160,60,180,60,397.572 kg,7.10113 MPa,0.0272169 mm
505,48,72,160,72,120,40,329.028 kg,5.37367 MPa,0.0394528 mm
506,48,72,160,72,120,50,349.188 kg,4.91701 MPa,0.0333464 mm
507,48,72,160,72,120,60,369.348 kg,4.52073 MPa,0.0285443 mm
508,48,72,160,72,150,40,349.188 kg,5.03833 MPa,0.0354255 mm
509,48,72,160,72,150,50,374.388 kg,4.55895 MPa,0.0297421 mm
510,48,72,160,72,150,60,399.588 kg,4.16497 MPa,0.025375 mm
511,48,72,160,72,180,40,369.348 kg,4.74374 MPa,0.0324625 mm
512,48,72,160,72,180,50,399.588 kg,4.27293 MPa,0.027124 mm
513,48,72,160,72,180,60,429.828 kg,3.90239 MPa,0.0231145 mm
514,48,72,200,48,120,40,295.97 kg,13.921 MPa,0.0543036 mm
515,48,72,200,48,120,50,316.13 kg,12.2706 MPa,0.0451617 mm
516,48,72,200,48,120,60,336.29 kg,8.75377 MPa,0.038145 mm
517,48,72,200,48,150,40,316.13 kg,11.0861 MPa,0.0483113 mm
518,48,72,200,48,150,50,341.33 kg,9.1537 MPa,0.0401617 mm
519,48,72,200,48,150,60,366.53 kg,8.1441 MPa,0.0338902 mm
520,48,72,200,48,180,40,336.29 kg,10.9678 MPa,0.0443415 mm
521,48,72,200,48,180,50,366.53 kg,9.64427 MPa,0.0365874 mm
522,48,72,200,48,180,60,396.77 kg,7.91319 MPa,0.0307887 mm
523,48,72,200,60,120,40,336.29 kg,6.313 MPa,0.0444529 mm
524,48,72,200,60,120,50,356.45 kg,4.90129 MPa,0.0375608 mm
525,48,72,200,60,120,60,376.61 kg,5.3414 MPa,0.0319826 mm
526,48,72,200,60,150,40,356.45 kg,5.94074 MPa,0.039902 mm
527,48,72,200,60,150,50,381.65 kg,4.05253 MPa,0.0334615 mm
528,48,72,200,60,150,60,406.85 kg,5.11582 MPa,0.0283371 mm
529,48,72,200,60,180,40,376.61 kg,4.62114 MPa,0.0366217 mm
530,48,72,200,60,180,50,406.85 kg,3.76815 MPa,0.0304894 mm
531,48,72,200,60,180,60,437.09 kg,3.50051 MPa,0.0258666 mm
532,48,72,200,72,120,40,376.61 kg,4.7877 MPa,0.0370044 mm
533,48,72,200,72,120,50,396.77 kg,4.32922 MPa,0.0314136 mm
534,48,72,200,72,120,60,416.93 kg,3.93581 MPa,0.0270228 mm
535,48,72,200,72,150,40,396.77 kg,4.47219 MPa,0.0332351 mm
536,48,72,200,72,150,50,421.97 kg,4.01881 MPa,0.0280224 mm
537,48,72,200,72,150,60,447.17 kg,3.63626 MPa,0.0240292 mm
538,48,72,200,72,180,40,416.93 kg,4.22788 MPa,0.0304809 mm
539,48,72,200,72,180,50,447.17 kg,3.77374 MPa,0.0255576 mm
540,48,72,200,72,180,60,477.41 kg,3.40118 MPa,0.0218504 mm
541,48,72,240,48,120,40,327.424 kg,8.30151 MPa,0.0461955 mm
542,48,72,240,48,120,50,347.584 kg,6.15235 MPa,0.0372164 mm
543,48,72,240,48,120,60,367.744 kg,7.60394 MPa,0.0322953 mm
544,48,72,240,48,150,40,347.584 kg,7.49433 MPa,0.041743 mm
545,48,72,240,48,150,50,372.784 kg,7.44365 MPa,0.0345191 mm
546,48,72,240,48,150,60,397.984 kg,5.56354 MPa,0.0290895 mm
547,48,72,240,48,180,40,367.744 kg,5.19062 MPa,0.0379048 mm
548,48,72,240,48,180,50,397.984 kg,5.89828 MPa,0.0313101 mm
549,48,72,240,48,180,60,428.224 kg,5.66071 MPa,0.0255348 mm
550,48,72,240,60,120,40,375.808 kg,5.08285 MPa,0.0397482 mm
551,48,72,240,60,120,50,395.968 kg,3.99609 MPa,0.0333272 mm
552,48,72,240,60,120,60,416.128 kg,3.75294 MPa,0.0286349 mm
553,48,72,240,60,150,40,395.968 kg,3.96981 MPa,0.0356897 mm
554,48,72,240,60,150,50,421.168 kg,3.55057 MPa,0.0299203 mm
555,48,72,240,60,150,60,446.368 kg,3.80862 MPa,0.0257035 mm
556,48,72,240,60,180,40,416.128 kg,3.76582 MPa,0.0326775 mm
557,48,72,240,60,180,50,446.368 kg,5.23176 MPa,0.0272806 mm
558,48,72,240,60,180,60,476.608 kg,3.11602 MPa,0.02323 mm
559,48,72,240,72,120,40,424.192 kg,3.52277 MPa,0.0333041 mm
560,48,72,240,72,120,50,444.352 kg,3.34405 MPa,0.0282756 mm
561,48,72,240,72,120,60,464.512 kg,3.0106 MPa,0.0244185 mm
562,48,72,240,72,150,40,444.352 kg,3.38522 MPa,0.0299694 mm
563,48,72,240,72,150,50,469.552 kg,2.94316 MPa,0.0253528 mm
564,48,72,240,72,150,60,494.752 kg,2.67292 MPa,0.0219199 mm
565,48,72,240,72,180,40,464.512 kg,3.09746 MPa,0.0274553 mm
566,48,72,240,72,180,50,494.752 kg,2.91341 MPa,0.0231852 mm
567,48,72,240,72,180,60,524.992 kg,2.60847 MPa,0.0198292 mm
568,48,90,160,48,120,40,279.031 kg,6.39097 MPa,0.0450748 mm
569,48,90,160,48,120,50,299.191 kg,8.89032 MPa,0.0375179 mm
570,48,90,160,48,120,60,319.351 kg,9.2258 MPa,0.0320694 mm
571,48,90,160,48,150,40,299.191 kg,5.66888 MPa,0.0403721 mm
572,48,90,160,48,150,50,324.391 kg,8.51788 MPa,0.0336619 mm
573,48,90,160,48,150,60,349.591 kg,8.68342 MPa,0.0285259 mm
574,48,90,160,48,180,40,319.351 kg,7.7581 MPa,0.036947 mm
575,48,90,160,48,180,50,349.591 kg,7.79092 MPa,0.0306337 mm
576,48,90,160,48,180,60,379.831 kg,7.74586 MPa,0.0260103 mm
577,48,90,160,60,120,40,311.287 kg,5.30082 MPa,0.0375084 mm
578,48,90,160,60,120,50,331.447 kg,5.76667 MPa,0.0316056 mm
579,48,90,160,60,120,60,351.607 kg,4.05045 MPa,0.0272153 mm
580,48,90,160,60,150,40,331.447 kg,4.97186 MPa,0.0336494 mm
581,48,90,160,60,150,50,356.647 kg,5.28589 MPa,0.0282007 mm
582,48,90,160,60,150,60,381.847 kg,3.74242 MPa,0.0242012 mm
583,48,90,160,60,180,40,351.607 kg,3.88205 MPa,0.0308854 mm
584,48,90,160,60,180,50,381.847 kg,4.97457 MPa,0.0257926 mm
585,48,90,160,60,180,60,412.087 kg,3.46176 MPa,0.0220705 mm
586,48,90,160,72,120,40,343.543 kg,4.83403 MPa,0.0316584 mm
587,48,90,160,72,120,50,363.703 kg,3.02945 MPa,0.025614 mm
588,48,90,160,72,120,60,383.863 kg,3.23148 MPa,0.0222578 mm
589,48,90,160,72,150,40,363.703 kg,4.4999 MPa,0.0284621 mm
590,48,90,160,72,150,50,388.903 kg,2.68081 MPa,0.0228472 mm
591,48,90,160,72,150,60,414.103 kg,2.39626 MPa,0.0197955 mm
592,48,90,160,72,180,40,383.863 kg,4.23187 MPa,0.0261666 mm
593,48,90,160,72,180,50,414.103 kg,2.91252 MPa,0.0210205 mm
594,48,90,160,72,180,60,444.343 kg,2.38239 MPa,0.0181623 mm
595,48,90,200,48,120,40,310.485 kg,10.3452 MPa,0.0422477 mm
596,48,90,200,48,120,50,330.645 kg,9.52019 MPa,0.0357179 mm
597,48,90,200,48,120,60,350.805 kg,8.65758 MPa,0.0306017 mm
598,48,90,200,48,150,40,330.645 kg,9.17389 MPa,0.0378362 mm
599,48,90,200,48,150,50,355.845 kg,9.33626 MPa,0.0317627 mm
600,48,90,200,48,150,60,381.045 kg,7.4258 MPa,0.027167 mm
601,48,90,200,48,180,40,350.805 kg,8.85295 MPa,0.0346996 mm
602,48,90,200,48,180,50,381.045 kg,8.14059 MPa,0.0290386 mm
603,48,90,200,48,180,60,411.285 kg,6.05181 MPa,0.0247044 mm
604,48,90,200,60,120,40,350.805 kg,4.40355 MPa,0.0354925 mm
605,48,90,200,60,120,50,370.965 kg,5.38198 MPa,0.0301402 mm
606,48,90,200,60,120,60,391.125 kg,3.61382 MPa,0.0258982 mm
607,48,90,200,60,150,40,370.965 kg,4.07508 MPa,0.0318194 mm
608,48,90,200,60,150,50,396.165 kg,3.52139 MPa,0.0268819 mm
609,48,90,200,60,150,60,421.365 kg,3.30949 MPa,0.0230361 mm
610,48,90,200,60,180,40,391.125 kg,3.70448 MPa,0.0292517 mm
611,48,90,200,60,180,50,421.365 kg,4.49217 MPa,0.024529 mm
612,48,90,200,60,180,60,451.605 kg,3.09466 MPa,0.0209768 mm
613,48,90,200,72,120,40,391.125 kg,4.21057 MPa,0.0299851 mm
614,48,90,200,72,120,50,411.285 kg,2.81778 MPa,0.024295 mm
615,48,90,200,72,120,60,431.445 kg,3.65842 MPa,0.0211205 mm
616,48,90,200,72,150,40,411.285 kg,3.92353 MPa,0.0269516 mm
617,48,90,200,72,150,50,436.485 kg,4.02352 MPa,0.0218075 mm
618,48,90,200,72,150,60,461.685 kg,3.13389 MPa,0.0188748 mm
619,48,90,200,72,180,40,431.445 kg,3.6942 MPa,0.0247432 mm
620,48,90,200,72,180,50,461.685 kg,2.39768 MPa,0.0199039 mm
621,48,90,200,72,180,60,491.925 kg,2.72339 MPa,0.0172774 mm
622,48,90,240,48,120,40,341.939 kg,6.70048 MPa,0.0356869 mm
623,48,90,240,48,120,50,362.099 kg,4.60439 MPa,0.0312563 mm
624,48,90,240,48,120,60,382.259 kg,5.62008 MPa,0.0264217 mm
625,48,90,240,48,150,40,362.099 kg,5.46569 MPa,0.0327329 mm
626,48,90,240,48,150,50,387.299 kg,4.98234 MPa,0.0263695 mm
627,48,90,240,48,150,60,412.499 kg,5.50069 MPa,0.0239545 mm
628,48,90,240,48,180,40,382.259 kg,6.22585 MPa,0.0299994 mm
629,48,90,240,48,180,50,412.499 kg,4.31959 MPa,0.0248011 mm
630,48,90,240,48,180,60,442.739 kg,5.07111 MPa,0.0206162 mm
631,48,90,240,60,120,40,390.323 kg,4.38139 MPa,0.0319413 mm
632,48,90,240,60,120,50,410.483 kg,3.89644 MPa,0.0271768 mm
633,48,90,240,60,120,60,430.643 kg,3.96701 MPa,0.0235693 mm
634,48,90,240,60,150,40,410.483 kg,3.5209 MPa,0.0285751 mm
635,48,90,240,60,150,50,435.683 kg,3.10148 MPa,0.0242106 mm
636,48,90,240,60,150,60,460.883 kg,3.23796 MPa,0.0208978 mm
637,48,90,240,60,180,40,430.643 kg,3.21996 MPa,0.0260741 mm
638,48,90,240,60,180,50,460.883 kg,3.03431 MPa,0.0221031 mm
639,48,90,240,60,180,60,491.123 kg,3.89017 MPa,0.0190634 mm
640,48,90,240,72,120,40,438.707 kg,3.15541 MPa,0.0270363 mm
641,48,90,240,72,120,50,458.867 kg,2.715 MPa,0.0233594 mm
642,48,90,240,72,120,60,479.027 kg,2.95865 MPa,0.0203234 mm
643,48,90,240,72,150,40,458.867 kg,3.31966 MPa,0.0243988 mm
644,48,90,240,72,150,50,484.067 kg,3.02846 MPa,0.0208375 mm
645,48,90,240,72,150,60,509.267 kg,2.48349 MPa,0.0181199 mm
646,48,90,240,72,180,40,479.027 kg,3.4049 MPa,0.0224012 mm
647,48,90,240,72,180,50,509.267 kg,3.705 MPa,0.0190975 mm
648,48,90,240,72,180,60,539.507 kg,2.13421 MPa,0.0165689 mm
649,48,108,160,48,120,40,293.546 kg,10.3734 MPa,0.035553 mm
650,48,108,160,48,120,50,313.706 kg,10.5506 MPa,0.0301865 mm
651,48,108,160,48,120,60,333.866 kg,6.02339 MPa,0.0239768 mm
652,48,108,160,48,150,40,313.706 kg,10.4933 MPa,0.0319382 mm
653,48,108,160,48,150,50,338.906 kg,9.49221 MPa,0.0269824 mm
654,48,108,160,48,150,60,364.106 kg,5.36286 MPa,0.0216099 mm
655,48,108,160,48,180,40,333.866 kg,8.43858 MPa,0.0293374 mm
656,48,108,160,48,180,50,364.106 kg,8.54419 MPa,0.0246862 mm
657,48,108,160,48,180,60,394.346 kg,8.75796 MPa,0.0197483 mm
658,48,108,160,60,120,40,325.802 kg,4.39116 MPa,0.0301809 mm
659,48,108,160,60,120,50,345.962 kg,3.6356 MPa,0.0243611 mm
660,48,108,160,60,120,60,366.122 kg,3.7279 MPa,0.0212126 mm
661,48,108,160,60,150,40,345.962 kg,4.1461 MPa,0.0271414 mm
662,48,108,160,60,150,50,371.162 kg,3.03238 MPa,0.0218667 mm
663,48,108,160,60,150,60,396.362 kg,4.9751 MPa,0.018948 mm
664,48,108,160,60,180,40,366.122 kg,3.89446 MPa,0.0249595 mm
665,48,108,160,60,180,50,396.362 kg,3.6617 MPa,0.0200196 mm
666,48,108,160,60,180,60,426.602 kg,2.54972 MPa,0.017365 mm
667,48,108,160,72,120,40,358.058 kg,2.95407 MPa,0.0244588 mm
668,48,108,160,72,120,50,378.218 kg,2.69571 MPa,0.0211625 mm
669,48,108,160,72,120,60,398.378 kg,2.864 MPa,0.018635 mm
670,48,108,160,72,150,40,378.218 kg,2.68653 MPa,0.0221321 mm
671,48,108,160,72,150,50,403.418 kg,2.96305 MPa,0.019117 mm
672,48,108,160,72,150,60,428.618 kg,2.55947 MPa,0.0166518 mm
673,48,108,160,72,180,40,398.378 kg,2.6583 MPa,0.0205066 mm
674,48,108,160,72,180,50,428.618 kg,4.23264 MPa,0.0175081 mm
675,48,108,160,72,180,60,458.858 kg,2.49956 MPa,0.0152716 mm
676,48,108,200,48,120,40,325 kg,9.9128 MPa,0.0338956 mm
677,48,108,200,48,120,50,345.16 kg,8.88439 MPa,0.0288293 mm
678,48,108,200,48,120,60,365.32 kg,4.60634 MPa,0.0222781 mm
679,48,108,200,48,150,40,345.16 kg,8.46536 MPa,0.0305013 mm
680,48,108,200,48,150,50,370.36 kg,8.33944 MPa,0.0257481 mm
681,48,108,200,48,150,60,395.56 kg,7.31295 MPa,0.0200257 mm
682,48,108,200,48,180,40,365.32 kg,7.91267 MPa,0.0279351 mm
683,48,108,200,48,180,50,395.56 kg,7.01301 MPa,0.023529 mm
684,48,108,200,48,180,60,425.8 kg,4.19361 MPa,0.0178435 mm
685,48,108,200,60,120,40,365.32 kg,4.09106 MPa,0.0287596 mm
686,48,108,200,60,120,50,385.48 kg,3.32389 MPa,0.0231478 mm
687,48,108,200,60,120,60,405.64 kg,7.20919 MPa,0.0202258 mm
688,48,108,200,60,150,40,385.48 kg,3.60631 MPa,0.0259077 mm
689,48,108,200,60,150,50,410.68 kg,4.72936 MPa,0.0208306 mm
690,48,108,200,60,150,60,435.88 kg,4.61523 MPa,0.0180932 mm
691,48,108,200,60,180,40,405.64 kg,3.33517 MPa,0.0237696 mm
692,48,108,200,60,180,50,435.88 kg,2.43227 MPa,0.019021 mm
693,48,108,200,60,180,60,466.12 kg,3.04243 MPa,0.0165375 mm
694,48,108,200,72,120,40,405.64 kg,2.97011 MPa,0.0233663 mm
695,48,108,200,72,120,50,425.8 kg,6.23686 MPa,0.0202452 mm
696,48,108,200,72,120,60,445.96 kg,3.79967 MPa,0.017752 mm
697,48,108,200,72,150,40,425.8 kg,2.78883 MPa,0.0211393 mm
698,48,108,200,72,150,50,451 kg,3.01901 MPa,0.0182217 mm
699,48,108,200,72,150,60,476.2 kg,3.24345 MPa,0.0158978 mm
700,48,108,200,72,180,40,445.96 kg,2.44455 MPa,0.0194554 mm
701,48,108,200,72,180,50,476.2 kg,2.40037 MPa,0.0166746 mm
702,48,108,200,72,180,60,506.44 kg,2.88604 MPa,0.0145117 mm
703,48,108,240,48,120,40,356.454 kg,5.49177 MPa,0.0289211 mm
704,48,108,240,48,120,50,376.614 kg,4.29961 MPa,0.0252981 mm
705,48,108,240,48,120,60,396.774 kg,3.88533 MPa,0.0220605 mm
706,48,108,240,48,150,40,376.614 kg,4.71258 MPa,0.0261108 mm
707,48,108,240,48,150,50,401.814 kg,4.51068 MPa,0.0224515 mm
708,48,108,240,48,150,60,427.014 kg,4.67106 MPa,0.0194457 mm
709,48,108,240,48,180,40,396.774 kg,5.52575 MPa,0.023886 mm
710,48,108,240,48,180,50,427.014 kg,4.71688 MPa,0.0191028 mm
711,48,108,240,48,180,60,457.254 kg,5.84996 MPa,0.0168696 mm
712,48,108,240,60,120,40,404.838 kg,3.52722 MPa,0.0259358 mm
713,48,108,240,60,120,50,424.998 kg,3.67207 MPa,0.0223667 mm
714,48,108,240,60,120,60,445.158 kg,2.72577 MPa,0.0194672 mm
715,48,108,240,60,150,40,424.998 kg,3.48573 MPa,0.0234711 mm
716,48,108,240,60,150,50,450.198 kg,3.63956 MPa,0.0200173 mm
717,48,108,240,60,150,60,475.398 kg,2.45132 MPa,0.0174264 mm
718,48,108,240,60,180,40,445.158 kg,4.73493 MPa,0.0214913 mm
719,48,108,240,60,180,50,475.398 kg,2.72401 MPa,0.0183669 mm
720,48,108,240,60,180,60,505.638 kg,3.01703 MPa,0.015954 mm
721,48,108,240,72,120,40,453.222 kg,2.99497 MPa,0.0224168 mm
722,48,108,240,72,120,50,473.382 kg,2.63928 MPa,0.0194594 mm
723,48,108,240,72,120,60,493.542 kg,2.38759 MPa,0.0170794 mm
724,48,108,240,72,150,40,473.382 kg,2.72893 MPa,0.0202959 mm
725,48,108,240,72,150,50,498.582 kg,2.22674 MPa,0.017492 mm
726,48,108,240,72,150,60,523.782 kg,1.96339 MPa,0.0153279 mm
727,48,108,240,72,180,40,493.542 kg,2.58941 MPa,0.0186567 mm
728,48,108,240,72,180,50,523.782 kg,2.43243 MPa,0.0160395 mm
729,48,108,240,72,180,60,554.022 kg,2.68957 MPa,0.0139857 mm
